sat
(
  (define-fun MemProv3 () Int
    3750)
  (define-fun VM5Type () Int
    37)
  (define-fun C5_VM4 () Int
    1)
  (define-fun C2_VM2 () Int
    0)
  (define-fun ProcProv1 () Int
    2)
  (define-fun MemProv2 () Int
    3750)
  (define-fun VM8Type () Int
    37)
  (define-fun PriceProv5 () Int
    128)
  (define-fun C1_VM2 () Int
    1)
  (define-fun C1_VM1 () Int
    1)
  (define-fun C4_VM8 () Int
    0)
  (define-fun StorageProv3 () Int
    2000)
  (define-fun C3_VM3 () Int
    0)
  (define-fun PriceProv1 () Int
    128)
  (define-fun C1_VM8 () Int
    0)
  (define-fun C2_VM6 () Int
    0)
  (define-fun C3_VM5 () Int
    0)
  (define-fun StorageProv5 () Int
    2000)
  (define-fun StorageProv7 () Int
    2000)
  (define-fun C4_VM6 () Int
    1)
  (define-fun C3_VM2 () Int
    0)
  (define-fun C2_VM1 () Int
    0)
  (define-fun VM3Type () Int
    37)
  (define-fun C5_VM3 () Int
    0)
  (define-fun PriceProv4 () Int
    252)
  (define-fun C1_VM3 () Int
    1)
  (define-fun C3_VM7 () Int
    0)
  (define-fun VM2Type () Int
    37)
  (define-fun ProcProv2 () Int
    2)
  (define-fun C4_VM7 () Int
    0)
  (define-fun C4_VM5 () Int
    0)
  (define-fun C4_VM3 () Int
    0)
  (define-fun StorageProv2 () Int
    2000)
  (define-fun C5_VM6 () Int
    0)
  (define-fun C2_VM5 () Int
    1)
  (define-fun StorageProv8 () Int
    2000)
  (define-fun C4_VM2 () Int
    0)
  (define-fun StorageProv4 () Int
    2000)
  (define-fun StorageProv6 () Int
    2000)
  (define-fun VM6Type () Int
    26)
  (define-fun ProcProv7 () Int
    4)
  (define-fun C2_VM7 () Int
    0)
  (define-fun MemProv7 () Int
    7500)
  (define-fun VM7Type () Int
    26)
  (define-fun PriceProv8 () Int
    128)
  (define-fun C4_VM4 () Int
    0)
  (define-fun ProcProv4 () Int
    4)
  (define-fun MemProv1 () Int
    3750)
  (define-fun MemProv8 () Int
    3750)
  (define-fun C2_VM8 () Int
    1)
  (define-fun ProcProv6 () Int
    4)
  (define-fun ProcProv5 () Int
    2)
  (define-fun C1_VM4 () Int
    0)
  (define-fun C5_VM7 () Int
    1)
  (define-fun PriceProv7 () Int
    252)
  (define-fun C1_VM7 () Int
    0)
  (define-fun C3_VM1 () Int
    0)
  (define-fun PriceProv6 () Int
    252)
  (define-fun ProcProv3 () Int
    2)
  (define-fun PriceProv2 () Int
    128)
  (define-fun C1_VM6 () Int
    0)
  (define-fun MemProv6 () Int
    7500)
  (define-fun MemProv4 () Int
    7500)
  (define-fun C5_VM5 () Int
    0)
  (define-fun C1_VM5 () Int
    0)
  (define-fun ProcProv8 () Int
    2)
  (define-fun C5_VM1 () Int
    0)
  (define-fun C2_VM3 () Int
    0)
  (define-fun VM4Type () Int
    26)
  (define-fun C4_VM1 () Int
    0)
  (define-fun C3_VM6 () Int
    0)
  (define-fun PriceProv3 () Int
    128)
  (define-fun C2_VM4 () Int
    0)
  (define-fun C3_VM8 () Int
    0)
  (define-fun C3_VM4 () Int
    0)
  (define-fun MemProv5 () Int
    3750)
  (define-fun C5_VM2 () Int
    0)
  (define-fun VM1Type () Int
    37)
  (define-fun C5_VM8 () Int
    0)
  (define-fun StorageProv1 () Int
    2000)
)
(objectives
 ( 32)
 ((+ 0
   PriceProv1
   PriceProv2
   PriceProv3
   PriceProv4
   PriceProv5
   PriceProv6
   PriceProv7
   PriceProv8) 1396)
)
(:added-eqs                   314133
 :arith-eq-adapter            64466
 :arith-bound-propagations-lp 446
 :arith-conflicts             33
 :arith-diseq                 271149
 :arith-fixed-eqs             8077
 :arith-lower                 251695
 :arith-make-feasible         46135
 :arith-max-columns           172
 :arith-max-rows              26
 :arith-upper                 340953
 :binary-propagations         1290027
 :conflicts                   3186
 :decisions                   103773
 :del-clause                  70659
 :final-checks                33
 :max-memory                  47.12
 :maxsat-cores                8
 :memory                      47.12
 :minimized-lits              33128
 :mk-bool-var                 122693
 :mk-clause                   72699
 :mk-clause-binary            5998
 :num-allocs                  136034806
 :num-checks                  45
 :pb-conflicts                2229
 :pb-predicates               615
 :pb-propagations             6871
 :pb-resolves                 2203
 :propagations                1764753
 :restarts                    21
 :rlimit-count                11654606
 :time                        0.67
 :total-time                  0.67)
